c max 193  194  195  196  197  198  199  200  238  239  240  241  242  243  244  245  246  247  248  249  263  265  267  268  282  284  286  287 0
c ind 424  425  426  429  430  431  432  435  436  437  438  441  442  443  446  447  448  451  452  453  456  457  458  461  462  463  464  467  468  469  470  472  473  474  475  476 0
c This is a CNF SAT formula in the DIMACS CNF format,
c produced with the bc2cnf translator by Tommi Junttila;
c see http://users.ics.aalto.fi/tjunttil/circuits/index.html
c phi_Gamma_det <-> 1
c phi_Gamma <-> 1
c phi_T_feature_det <-> 1
c phi_T_transitions <-> 1
c phi_T_transitions_consistency <-> 1
c phi_T <-> 1
c phi_sim_leaves <-> 1
c phi_sim_transition <-> 1
c phi_sim <-> 1
c FORMULA <-> 1
c pi_1 <-> 2
c pi_0 <-> 105
c tau_1_3_approved_1 <-> 193
c tau_1_3_approved_0 <-> 194
c tau_1_2_approved_1 <-> 195
c tau_1_2_approved_0 <-> 196
c tau_1_1_approved_1 <-> 197
c tau_1_1_approved_0 <-> 198
c tau_1_0_approved_1 <-> 199
c tau_1_0_approved_0 <-> 200
c tau_0_3_approved_1 <-> 238
c tau_0_3_approved_0 <-> 239
c tau_0_3_1 <-> 240
c tau_0_2_approved_1 <-> 241
c tau_0_2_approved_0 <-> 242
c tau_0_2_1 <-> 243
c tau_0_1_approved_1 <-> 244
c tau_0_1_approved_0 <-> 245
c tau_0_1_1 <-> 246
c tau_0_0_approved_1 <-> 247
c tau_0_0_approved_0 <-> 248
c tau_0_0_1 <-> 249
c lam_1_credit_score <-> 263
c lam_1_dependents <-> 265
c lam_1_monthly_income <-> 267
c lam_1_age <-> 268
c lam_0_credit_score <-> 282
c lam_0_dependents <-> 284
c lam_0_monthly_income <-> 286
c lam_0_age <-> 287
c phi_Gamma_val <-> 422
c credit_score_P48800 <-> 424
c monthly_income_P491938 <-> 425
c age_P5600 <-> 426
c pi_approved_1 <-> 429
c approved_P100 <-> 429
c credit_score_P60400 <-> 430
c monthly_income_P973470 <-> 431
c age_P7300 <-> 432
c credit_score_P66500 <-> 435
c dependents_P600 <-> 436
c monthly_income_P400132 <-> 437
c age_P4400 <-> 438
c credit_score_P79900 <-> 441
c monthly_income_P719685 <-> 442
c age_P2000 <-> 443
c credit_score_P64900 <-> 446
c dependents_P400 <-> 447
c monthly_income_P546069 <-> 448
c credit_score_P41700 <-> 451
c dependents_P200 <-> 452
c monthly_income_P454788 <-> 453
c credit_score_P71200 <-> 456
c monthly_income_P489218 <-> 457
c age_P5200 <-> 458
c credit_score_P78600 <-> 461
c dependents_P100 <-> 462
c monthly_income_P137421 <-> 463
c age_P1800 <-> 464
c credit_score_P47900 <-> 467
c dependents_P500 <-> 468
c monthly_income_P473971 <-> 469
c age_P5900 <-> 470
c pi_approved_0 <-> 472
c approved_P0 <-> 472
c credit_score_P59200 <-> 473
c dependents_P0 <-> 474
c monthly_income_P401413 <-> 475
c age_P4700 <-> 476
p cnf 476 1283
1 0
2 -3 0
2 -7 0
-2 7 3 0
-3 4 0
-3 57 0
3 -57 -4 0
-4 5 0
-4 263 0
4 -263 -5 0
5 -6 0
5 -99 0
-5 99 6 0
6 -70 0
6 -102 0
-6 102 70 0
7 -8 0
7 -13 0
-7 13 8 0
-8 9 0
-8 78 0
8 -78 -9 0
-9 10 0
-9 263 0
9 -263 -10 0
10 -11 0
10 -52 0
-10 52 11 0
11 -12 0
11 -83 0
-11 83 12 0
12 -66 0
12 -90 0
-12 90 66 0
13 -14 0
13 -18 0
-13 18 14 0
-14 15 0
-14 94 0
14 -94 -15 0
-15 16 0
-15 263 0
15 -263 -16 0
16 -17 0
16 -62 0
-16 62 17 0
17 -73 0
17 -87 0
-17 87 73 0
18 -19 0
18 -25 0
-18 25 19 0
-19 20 0
-19 78 0
19 -78 -20 0
-20 21 0
-20 265 0
20 -265 -21 0
21 -22 0
21 -62 0
-21 62 22 0
22 -23 0
22 -52 0
-22 52 23 0
23 -24 0
23 -83 0
-23 83 24 0
24 -66 0
24 -73 0
-24 73 66 0
25 -26 0
25 -32 0
-25 32 26 0
-26 27 0
-26 94 0
26 -94 -27 0
-27 28 0
-27 265 0
27 -265 -28 0
28 -29 0
28 -99 0
-28 99 29 0
29 -30 0
29 -87 0
-29 87 30 0
30 -31 0
30 -70 0
-30 70 31 0
31 -90 0
31 -102 0
-31 102 90 0
32 -33 0
32 -36 0
-32 36 33 0
-33 34 0
-33 78 0
33 -78 -34 0
-34 35 0
-34 267 0
34 -267 -35 0
35 -52 0
35 -99 0
-35 99 52 0
36 -37 0
36 -46 0
-36 46 37 0
-37 38 0
-37 94 0
37 -94 -38 0
-38 39 0
-38 267 0
38 -267 -39 0
39 -40 0
39 -62 0
-39 62 40 0
40 -41 0
40 -83 0
-40 83 41 0
41 -42 0
41 -66 0
-41 66 42 0
42 -43 0
42 -87 0
-42 87 43 0
43 -44 0
43 -70 0
-43 70 44 0
44 -45 0
44 -102 0
-44 102 45 0
45 -73 0
45 -90 0
-45 90 73 0
46 -47 0
46 -55 0
-46 55 47 0
-47 48 0
-47 51 0
47 -51 -48 0
-48 49 0
-48 50 0
48 -50 -49 0
49 193 0
49 -429 0
-49 429 -193 0
50 194 0
50 -472 0
-50 472 -194 0
-51 52 0
-51 268 0
51 -268 -52 0
-52 53 0
-52 430 0
52 -430 -53 0
-53 54 0
-53 468 0
53 -468 -54 0
-54 431 0
-54 432 0
54 -432 -431 0
55 -56 0
55 -76 0
-55 76 56 0
-56 57 0
-56 60 0
56 -60 -57 0
-57 58 0
-57 59 0
57 -59 -58 0
58 195 0
58 -429 0
-58 429 -195 0
59 196 0
59 -472 0
-59 472 -196 0
-60 61 0
-60 268 0
60 -268 -61 0
61 -62 0
61 -65 0
-61 65 62 0
-62 63 0
-62 424 0
62 -424 -63 0
-63 64 0
-63 447 0
63 -447 -64 0
-64 425 0
-64 426 0
64 -426 -425 0
65 -66 0
65 -69 0
-65 69 66 0
-66 67 0
-66 446 0
66 -446 -67 0
-67 68 0
-67 447 0
67 -447 -68 0
-68 448 0
-68 470 0
68 -470 -448 0
69 -70 0
69 -73 0
-69 73 70 0
-70 71 0
-70 456 0
70 -456 -71 0
-71 72 0
-71 474 0
71 -474 -72 0
-72 457 0
-72 458 0
72 -458 -457 0
-73 74 0
-73 467 0
73 -467 -74 0
-74 75 0
-74 468 0
74 -468 -75 0
-75 469 0
-75 470 0
75 -470 -469 0
76 -77 0
76 -93 0
-76 93 77 0
-77 78 0
-77 81 0
77 -81 -78 0
-78 79 0
-78 80 0
78 -80 -79 0
79 197 0
79 -429 0
-79 429 -197 0
80 198 0
80 -472 0
-80 472 -198 0
-81 82 0
-81 268 0
81 -268 -82 0
82 -83 0
82 -86 0
-82 86 83 0
-83 84 0
-83 435 0
83 -435 -84 0
-84 85 0
-84 436 0
84 -436 -85 0
-85 437 0
-85 438 0
85 -438 -437 0
86 -87 0
86 -90 0
-86 90 87 0
-87 88 0
-87 451 0
87 -451 -88 0
-88 89 0
-88 452 0
88 -452 -89 0
-89 453 0
-89 476 0
89 -476 -453 0
-90 91 0
-90 473 0
90 -473 -91 0
-91 92 0
-91 474 0
91 -474 -92 0
-92 475 0
-92 476 0
92 -476 -475 0
-93 94 0
-93 97 0
93 -97 -94 0
-94 95 0
-94 96 0
94 -96 -95 0
95 199 0
95 -429 0
-95 429 -199 0
96 200 0
96 -472 0
-96 472 -200 0
-97 98 0
-97 268 0
97 -268 -98 0
98 -99 0
98 -102 0
-98 102 99 0
-99 100 0
-99 441 0
99 -441 -100 0
-100 101 0
-100 452 0
100 -452 -101 0
-101 442 0
-101 443 0
101 -443 -442 0
-102 103 0
-102 461 0
102 -461 -103 0
-103 104 0
-103 462 0
103 -462 -104 0
-104 463 0
-104 464 0
104 -464 -463 0
105 -106 0
105 -108 0
-105 108 106 0
105 0
-106 107 0
-106 136 0
106 -136 -107 0
-107 5 0
-107 282 0
107 -282 -5 0
108 -109 0
108 -111 0
-108 111 109 0
-109 110 0
-109 144 0
109 -144 -110 0
-110 10 0
-110 282 0
110 -282 -10 0
111 -112 0
111 -114 0
-111 114 112 0
-112 113 0
-112 151 0
112 -151 -113 0
-113 16 0
-113 282 0
113 -282 -16 0
114 -115 0
114 -117 0
-114 117 115 0
-115 116 0
-115 144 0
115 -144 -116 0
-116 21 0
-116 284 0
116 -284 -21 0
117 -118 0
117 -120 0
-117 120 118 0
-118 119 0
-118 151 0
118 -151 -119 0
-119 28 0
-119 284 0
119 -284 -28 0
120 -121 0
120 -123 0
-120 123 121 0
-121 122 0
-121 144 0
121 -144 -122 0
-122 35 0
-122 286 0
122 -286 -35 0
123 -124 0
123 -126 0
-123 126 124 0
-124 125 0
-124 151 0
124 -151 -125 0
-125 39 0
-125 286 0
125 -286 -39 0
126 -127 0
126 -134 0
-126 134 127 0
-127 128 0
-127 133 0
127 -133 -128 0
-128 129 0
-128 130 0
128 -130 -129 0
129 238 0
129 -429 0
-129 429 -238 0
-130 131 0
-130 132 0
130 -132 -131 0
131 239 0
131 -472 0
-131 472 -239 0
132 -2 0
132 240 0
-132 -240 2 0
-133 52 0
-133 287 0
133 -287 -52 0
134 -135 0
134 -142 0
-134 142 135 0
-135 136 0
-135 141 0
135 -141 -136 0
-136 137 0
-136 138 0
136 -138 -137 0
137 241 0
137 -429 0
-137 429 -241 0
-138 139 0
-138 140 0
138 -140 -139 0
139 242 0
139 -472 0
-139 472 -242 0
140 -2 0
140 243 0
-140 -243 2 0
-141 61 0
-141 287 0
141 -287 -61 0
142 -143 0
142 -150 0
-142 150 143 0
-143 144 0
-143 149 0
143 -149 -144 0
-144 145 0
-144 146 0
144 -146 -145 0
145 244 0
145 -429 0
-145 429 -244 0
-146 147 0
-146 148 0
146 -148 -147 0
147 245 0
147 -472 0
-147 472 -245 0
148 -2 0
148 246 0
-148 -246 2 0
-149 82 0
-149 287 0
149 -287 -82 0
-150 151 0
-150 156 0
150 -156 -151 0
-151 152 0
-151 153 0
151 -153 -152 0
152 247 0
152 -429 0
-152 429 -247 0
-153 154 0
-153 155 0
153 -155 -154 0
154 248 0
154 -472 0
-154 472 -248 0
155 -2 0
155 249 0
-155 -249 2 0
-156 98 0
-156 287 0
156 -287 -98 0
157 263 0
157 -158 0
-157 158 -263 0
157 0
-158 -193 0
-158 -194 0
158 194 193 0
159 265 0
159 -160 0
-159 160 -265 0
159 0
-160 -193 0
-160 161 0
160 -161 193 0
-161 -194 0
-161 162 0
161 -162 194 0
-162 -195 0
-162 -196 0
162 196 195 0
163 -160 0
163 267 0
-163 -267 160 0
163 0
164 282 0
164 -165 0
-164 165 -282 0
164 0
-165 -238 0
-165 166 0
165 -166 238 0
-166 -239 0
-166 -240 0
166 240 239 0
167 284 0
167 -168 0
-167 168 -284 0
167 0
-168 -238 0
-168 169 0
168 -169 238 0
-169 -239 0
-169 170 0
169 -170 239 0
-170 -240 0
-170 171 0
170 -171 240 0
-171 -241 0
-171 172 0
171 -172 241 0
-172 -242 0
-172 -243 0
172 243 242 0
173 -168 0
173 286 0
-173 -286 168 0
173 0
174 263 0
174 -175 0
-174 175 -263 0
174 0
-175 176 0
-175 179 0
175 -179 -176 0
176 -177 0
176 -178 0
-176 178 177 0
-177 -196 0
-177 195 0
177 -195 196 0
-178 -195 0
-178 196 0
178 -196 195 0
-179 180 0
-179 183 0
179 -183 -180 0
180 -181 0
180 -182 0
-180 182 181 0
-181 -198 0
-181 197 0
181 -197 198 0
-182 -197 0
-182 198 0
182 -198 197 0
183 -184 0
183 -185 0
-183 185 184 0
-184 -200 0
-184 199 0
184 -199 200 0
-185 -199 0
-185 200 0
185 -200 199 0
186 265 0
186 -179 0
-186 179 -265 0
186 0
187 267 0
187 -179 0
-187 179 -267 0
187 0
188 268 0
188 -189 0
-188 189 -268 0
188 0
-189 175 0
-189 190 0
189 -190 -175 0
190 -191 0
190 -192 0
-190 192 191 0
-191 -194 0
-191 193 0
191 -193 194 0
-192 -193 0
-192 194 0
192 -194 193 0
201 282 0
201 -202 0
-201 202 -282 0
201 0
-202 203 0
-202 210 0
202 -210 -203 0
203 -204 0
203 -208 0
-203 208 204 0
204 -205 0
204 -206 0
-204 206 205 0
-205 172 0
-205 241 0
205 -241 -172 0
-206 207 0
-206 242 0
206 -242 -207 0
-207 -241 0
-207 -243 0
207 243 241 0
-208 209 0
-208 243 0
208 -243 -209 0
-209 -241 0
-209 -242 0
209 242 241 0
-210 211 0
-210 219 0
210 -219 -211 0
211 -212 0
211 -217 0
-211 217 212 0
212 -213 0
212 -215 0
-212 215 213 0
-213 214 0
-213 244 0
213 -244 -214 0
-214 -245 0
-214 -246 0
214 246 245 0
-215 216 0
-215 245 0
215 -245 -216 0
-216 -244 0
-216 -246 0
216 246 244 0
-217 218 0
-217 246 0
217 -246 -218 0
-218 -244 0
-218 -245 0
218 245 244 0
219 -220 0
219 -225 0
-219 225 220 0
220 -221 0
220 -223 0
-220 223 221 0
-221 222 0
-221 247 0
221 -247 -222 0
-222 -248 0
-222 -249 0
222 249 248 0
-223 224 0
-223 248 0
223 -248 -224 0
-224 -247 0
-224 -249 0
224 249 247 0
-225 226 0
-225 249 0
225 -249 -226 0
-226 -247 0
-226 -248 0
226 248 247 0
227 284 0
227 -210 0
-227 210 -284 0
227 0
228 286 0
228 -210 0
-228 210 -286 0
228 0
229 287 0
229 -230 0
-229 230 -287 0
229 0
-230 202 0
-230 231 0
230 -231 -202 0
231 -232 0
231 -236 0
-231 236 232 0
232 -233 0
232 -234 0
-232 234 233 0
-233 166 0
-233 238 0
233 -238 -166 0
-234 235 0
-234 239 0
234 -239 -235 0
-235 -238 0
-235 -240 0
235 240 238 0
-236 237 0
-236 240 0
236 -240 -237 0
-237 -238 0
-237 -239 0
237 239 238 0
250 -251 0
250 -254 0
-250 254 251 0
250 0
-251 -265 0
-251 252 0
251 -252 265 0
-252 -267 0
-252 253 0
252 -253 267 0
-253 -268 0
-253 263 0
253 -263 268 0
254 -255 0
254 -258 0
-254 258 255 0
-255 -263 0
-255 256 0
255 -256 263 0
-256 -267 0
-256 257 0
256 -257 267 0
-257 -268 0
-257 265 0
257 -265 268 0
258 -259 0
258 -262 0
-258 262 259 0
-259 -263 0
-259 260 0
259 -260 263 0
-260 -265 0
-260 261 0
260 -261 265 0
-261 -268 0
-261 267 0
261 -267 268 0
-262 -263 0
-262 264 0
262 -264 263 0
-264 -265 0
-264 266 0
264 -266 265 0
-266 -267 0
-266 268 0
266 -268 267 0
269 -270 0
269 -273 0
-269 273 270 0
269 0
-270 -284 0
-270 271 0
270 -271 284 0
-271 -286 0
-271 272 0
271 -272 286 0
-272 -287 0
-272 282 0
272 -282 287 0
273 -274 0
273 -277 0
-273 277 274 0
-274 -282 0
-274 275 0
274 -275 282 0
-275 -286 0
-275 276 0
275 -276 286 0
-276 -287 0
-276 284 0
276 -284 287 0
277 -278 0
277 -281 0
-277 281 278 0
-278 -282 0
-278 279 0
278 -279 282 0
-279 -284 0
-279 280 0
279 -280 284 0
-280 -287 0
-280 286 0
280 -286 287 0
-281 -282 0
-281 283 0
281 -283 282 0
-283 -284 0
-283 285 0
283 -285 284 0
-285 -286 0
-285 287 0
285 -287 286 0
288 472 0
288 429 0
-288 -429 -472 0
288 0
289 430 0
289 424 0
-289 -424 -430 0
289 0
290 435 0
290 -291 0
-290 291 -435 0
290 0
-291 -430 0
-291 -424 0
291 424 430 0
292 441 0
292 -293 0
-292 293 -441 0
292 0
-293 -424 0
-293 294 0
293 -294 424 0
-294 -430 0
-294 -435 0
294 435 430 0
295 446 0
295 -296 0
-295 296 -446 0
295 0
-296 -424 0
-296 297 0
296 -297 424 0
-297 -430 0
-297 298 0
297 -298 430 0
-298 -435 0
-298 -441 0
298 441 435 0
299 451 0
299 -300 0
-299 300 -451 0
299 0
-300 -424 0
-300 301 0
300 -301 424 0
-301 -430 0
-301 302 0
301 -302 430 0
-302 -435 0
-302 303 0
302 -303 435 0
-303 -441 0
-303 -446 0
303 446 441 0
304 456 0
304 -305 0
-304 305 -456 0
304 0
-305 -424 0
-305 306 0
305 -306 424 0
-306 -430 0
-306 307 0
306 -307 430 0
-307 -435 0
-307 308 0
307 -308 435 0
-308 -441 0
-308 309 0
308 -309 441 0
-309 -446 0
-309 -451 0
309 451 446 0
310 461 0
310 -311 0
-310 311 -461 0
310 0
-311 -424 0
-311 312 0
311 -312 424 0
-312 -430 0
-312 313 0
312 -313 430 0
-313 -435 0
-313 314 0
313 -314 435 0
-314 -441 0
-314 315 0
314 -315 441 0
-315 -446 0
-315 316 0
315 -316 446 0
-316 -451 0
-316 -456 0
316 456 451 0
317 467 0
317 -318 0
-317 318 -467 0
317 0
-318 -424 0
-318 319 0
318 -319 424 0
-319 -430 0
-319 320 0
319 -320 430 0
-320 -435 0
-320 321 0
320 -321 435 0
-321 -441 0
-321 322 0
321 -322 441 0
-322 -446 0
-322 323 0
322 -323 446 0
-323 -451 0
-323 324 0
323 -324 451 0
-324 -456 0
-324 -461 0
324 461 456 0
325 473 0
325 -326 0
-325 326 -473 0
325 0
-326 -424 0
-326 327 0
326 -327 424 0
-327 -430 0
-327 328 0
327 -328 430 0
-328 -435 0
-328 329 0
328 -329 435 0
-329 -441 0
-329 330 0
329 -330 441 0
-330 -446 0
-330 331 0
330 -331 446 0
-331 -451 0
-331 332 0
331 -332 451 0
-332 -456 0
-332 333 0
332 -333 456 0
-333 -461 0
-333 -467 0
333 467 461 0
334 447 0
334 436 0
-334 -436 -447 0
334 0
335 452 0
335 -336 0
-335 336 -452 0
335 0
-336 -447 0
-336 -436 0
336 436 447 0
337 462 0
337 -338 0
-337 338 -462 0
337 0
-338 -436 0
-338 339 0
338 -339 436 0
-339 -447 0
-339 -452 0
339 452 447 0
340 468 0
340 -341 0
-340 341 -468 0
340 0
-341 -436 0
-341 342 0
341 -342 436 0
-342 -447 0
-342 343 0
342 -343 447 0
-343 -452 0
-343 -462 0
343 462 452 0
344 474 0
344 -345 0
-344 345 -474 0
344 0
-345 -436 0
-345 346 0
345 -346 436 0
-346 -447 0
-346 347 0
346 -347 447 0
-347 -452 0
-347 348 0
347 -348 452 0
-348 -462 0
-348 -468 0
348 468 462 0
349 431 0
349 425 0
-349 -425 -431 0
349 0
350 437 0
350 -351 0
-350 351 -437 0
350 0
-351 -431 0
-351 -425 0
351 425 431 0
352 442 0
352 -353 0
-352 353 -442 0
352 0
-353 -425 0
-353 354 0
353 -354 425 0
-354 -431 0
-354 -437 0
354 437 431 0
355 448 0
355 -356 0
-355 356 -448 0
355 0
-356 -425 0
-356 357 0
356 -357 425 0
-357 -431 0
-357 358 0
357 -358 431 0
-358 -437 0
-358 -442 0
358 442 437 0
359 453 0
359 -360 0
-359 360 -453 0
359 0
-360 -425 0
-360 361 0
360 -361 425 0
-361 -431 0
-361 362 0
361 -362 431 0
-362 -437 0
-362 363 0
362 -363 437 0
-363 -442 0
-363 -448 0
363 448 442 0
364 457 0
364 -365 0
-364 365 -457 0
364 0
-365 -425 0
-365 366 0
365 -366 425 0
-366 -431 0
-366 367 0
366 -367 431 0
-367 -437 0
-367 368 0
367 -368 437 0
-368 -442 0
-368 369 0
368 -369 442 0
-369 -448 0
-369 -453 0
369 453 448 0
370 463 0
370 -371 0
-370 371 -463 0
370 0
-371 -425 0
-371 372 0
371 -372 425 0
-372 -431 0
-372 373 0
372 -373 431 0
-373 -437 0
-373 374 0
373 -374 437 0
-374 -442 0
-374 375 0
374 -375 442 0
-375 -448 0
-375 376 0
375 -376 448 0
-376 -453 0
-376 -457 0
376 457 453 0
377 469 0
377 -378 0
-377 378 -469 0
377 0
-378 -425 0
-378 379 0
378 -379 425 0
-379 -431 0
-379 380 0
379 -380 431 0
-380 -437 0
-380 381 0
380 -381 437 0
-381 -442 0
-381 382 0
381 -382 442 0
-382 -448 0
-382 383 0
382 -383 448 0
-383 -453 0
-383 384 0
383 -384 453 0
-384 -457 0
-384 -463 0
384 463 457 0
385 475 0
385 -386 0
-385 386 -475 0
385 0
-386 -425 0
-386 387 0
386 -387 425 0
-387 -431 0
-387 388 0
387 -388 431 0
-388 -437 0
-388 389 0
388 -389 437 0
-389 -442 0
-389 390 0
389 -390 442 0
-390 -448 0
-390 391 0
390 -391 448 0
-391 -453 0
-391 392 0
391 -392 453 0
-392 -457 0
-392 393 0
392 -393 457 0
-393 -463 0
-393 -469 0
393 469 463 0
394 432 0
394 426 0
-394 -426 -432 0
394 0
395 438 0
395 -396 0
-395 396 -438 0
395 0
-396 -432 0
-396 -426 0
396 426 432 0
397 443 0
397 -398 0
-397 398 -443 0
397 0
-398 -426 0
-398 399 0
398 -399 426 0
-399 -432 0
-399 -438 0
399 438 432 0
400 458 0
400 -401 0
-400 401 -458 0
400 0
-401 -426 0
-401 402 0
401 -402 426 0
-402 -432 0
-402 403 0
402 -403 432 0
-403 -438 0
-403 -443 0
403 443 438 0
404 464 0
404 -405 0
-404 405 -464 0
404 0
-405 -426 0
-405 406 0
405 -406 426 0
-406 -432 0
-406 407 0
406 -407 432 0
-407 -438 0
-407 408 0
407 -408 438 0
-408 -443 0
-408 -458 0
408 458 443 0
409 470 0
409 -410 0
-409 410 -470 0
409 0
-410 -426 0
-410 411 0
410 -411 426 0
-411 -432 0
-411 412 0
411 -412 432 0
-412 -438 0
-412 413 0
412 -413 438 0
-413 -443 0
-413 414 0
413 -414 443 0
-414 -458 0
-414 -464 0
414 464 458 0
415 476 0
415 -416 0
-415 416 -476 0
415 0
-416 -426 0
-416 417 0
416 -417 426 0
-417 -432 0
-417 418 0
417 -418 432 0
-418 -438 0
-418 419 0
418 -419 438 0
-419 -443 0
-419 420 0
419 -420 443 0
-420 -458 0
-420 421 0
420 -421 458 0
-421 -464 0
-421 -470 0
421 470 464 0
422 -423 0
422 -427 0
-422 427 423 0
422 0
-423 62 0
-423 472 0
423 -472 -62 0
427 -428 0
427 -433 0
-427 433 428 0
-428 52 0
-428 429 0
428 -429 -52 0
433 -434 0
433 -439 0
-433 439 434 0
-434 83 0
-434 472 0
434 -472 -83 0
439 -440 0
439 -444 0
-439 444 440 0
-440 99 0
-440 472 0
440 -472 -99 0
444 -445 0
444 -449 0
-444 449 445 0
-445 66 0
-445 472 0
445 -472 -66 0
449 -450 0
449 -454 0
-449 454 450 0
-450 87 0
-450 472 0
450 -472 -87 0
454 -455 0
454 -459 0
-454 459 455 0
-455 70 0
-455 472 0
455 -472 -70 0
459 -460 0
459 -465 0
-459 465 460 0
-460 102 0
-460 472 0
460 -472 -102 0
465 -466 0
465 -471 0
-465 471 466 0
-466 73 0
-466 472 0
466 -472 -73 0
-471 90 0
-471 472 0
471 -472 -90 0
